
(set-logic QF_ASNIA)
(set-option :produce-models true)
(set-option :strings-exp true)


(define-fun isinteger ((x!1 String)) Bool (str.in_re x!1 (re.+ (re.range "0" "9")))  )
(define-fun notinteger ((x!1 String)) Bool (not (isinteger x!1)) )
(define-fun real.str.from_int ((i Int)) String (ite (< i 0) (str.++ "-" (str.from_int (- i))) (str.from_int i)))
(define-fun real.str.to_int ((i String)) Int (ite (= (str.substr i 0 1) "-") (- (str.to_int (str.substr i 1 (- (str.len i) 1)))) (str.to_int i)))

(declare-fun x25_P1 () String)
(declare-fun input2_P1 () String)
(declare-fun x59 () Int)
(declare-fun input3_P2_d1 () String)
(declare-fun input4_P1_d4 () String)
(declare-fun input1_P2_d2 () String)
(declare-fun x22_P1 () String)
(declare-fun input3_P1_d18 () String)
(declare-fun input4_P1_d5 () String)
(declare-fun input3_P1_d0 () String)
(declare-fun input4_P1_d7 () String)
(declare-fun x50_P1 () String)
(declare-fun input3_P1_d19 () String)
(declare-fun input1_P1_d8 () String)
(declare-fun input1_P2_d6 () String)
(declare-fun x15_P1 () String)
(declare-fun input3_P1_d3 () String)
(declare-fun x1_P2 () String)
(declare-fun input3_P1_d1 () String)
(declare-fun input3_P2_d6 () String)
(declare-fun x34_P1 () String)
(declare-fun input2_P2 () String)
(declare-fun input5_P2_d5 () String)
(declare-fun input3_P2_d12 () String)
(declare-fun input2_P2_d1 () String)
(declare-fun input5_P2_d1 () String)
(declare-fun input1_P2_d1 () String)
(declare-fun x58 () Int)
(declare-fun x50_P2 () String)
(declare-fun input4_P1_d1 () String)
(declare-fun input5_P1_d2 () String)
(declare-fun input3_P2_d13 () String)
(declare-fun input4_P2_d7 () String)
(declare-fun input3_P1_d13 () String)
(declare-fun input1_P1 () String)
(declare-fun x37_P2 () String)
(declare-fun input5_P1_d0 () String)
(declare-fun x15_P2 () String)
(declare-fun input3_P1_d7 () String)
(declare-fun input3_P1_d10 () String)
(declare-fun x4_P1 () String)
(declare-fun input1_P2 () String)
(declare-fun input3_P1_d15 () String)
(declare-fun input2_P1_d3 () String)
(declare-fun input3_P1_d9 () String)
(declare-fun input4_P2_d4 () String)
(declare-fun input3_P2_d8 () String)
(declare-fun input4_P2_d3 () String)
(declare-fun x25_P2 () String)
(declare-fun input5_P2_d0 () String)
(declare-fun input3_P2_d11 () String)
(declare-fun input3_P1_d2 () String)
(declare-fun input2_P1_d1 () String)
(declare-fun input1_P2_d4 () String)
(declare-fun input3_P2_d5 () String)
(declare-fun x1_P1 () String)
(declare-fun input3_P2_d9 () String)
(declare-fun input4_P1_d0 () String)
(declare-fun input4_P2_d5 () String)
(declare-fun input3_P2_d2 () String)
(declare-fun x60 () Int)
(declare-fun x12_P2 () String)
(declare-fun input3_P2_d0 () String)
(declare-fun input1_P1_d5 () String)
(declare-fun input4_P1 () String)
(declare-fun input1_P2_d8 () String)
(declare-fun input3_P1 () String)
(declare-fun input2_P2_d3 () String)
(declare-fun input5_P1_d1 () String)
(declare-fun input3_P1_d4 () String)
(declare-fun input2_P1_d0 () String)
(declare-fun input3_P1_d20 () String)
(declare-fun input3_P2_d22 () String)
(declare-fun input3_P1_d5 () String)
(declare-fun input4_P2_d1 () String)
(declare-fun x61 () Int)
(declare-fun input3_P2_d14 () String)
(declare-fun input3_P2_d17 () String)
(declare-fun x37_P1 () String)
(declare-fun x55_P2 () String)
(declare-fun x56_P1 () Int)
(declare-fun input3_P2_d20 () String)
(declare-fun input1_P1_d3 () String)
(declare-fun input1_P1_d6 () String)
(declare-fun x4_P2 () String)
(declare-fun x22_P2 () String)
(declare-fun input1_P1_d2 () String)
(declare-fun input4_P1_d3 () String)
(declare-fun input3_P2_d10 () String)
(declare-fun input1_P1_d0 () String)
(declare-fun input4_P2_d6 () String)
(declare-fun input3_P2_d7 () String)
(declare-fun input2_P2_d4 () String)
(declare-fun input3_P1_d11 () String)
(declare-fun x62 () (Array Int Int))
(declare-fun input5_P1_d5 () String)
(declare-fun input4_P1_d2 () String)
(declare-fun input1_P1_d4 () String)
(declare-fun input4_P1_d6 () String)
(declare-fun input3_P2_d16 () String)
(declare-fun input3_P2_d3 () String)
(declare-fun input2_P2_d2 () String)
(declare-fun input4_P2_d8 () String)
(declare-fun input3_P1_d21 () String)
(declare-fun input3_P1_d14 () String)
(declare-fun input5_P1_d3 () String)
(declare-fun input3_P1_d6 () String)
(declare-fun input3_P2_d21 () String)
(declare-fun input3_P1_d12 () String)
(declare-fun input3_P2_d19 () String)
(declare-fun input3_P1_d8 () String)
(declare-fun input4_P2_d0 () String)
(declare-fun input3_P2_d15 () String)
(declare-fun x55_P1 () String)
(declare-fun input5_P2_d3 () String)
(declare-fun input1_P1_d7 () String)
(declare-fun input1_P2_d5 () String)
(declare-fun input4_P2 () String)
(declare-fun input3_P1_d16 () String)
(declare-fun input1_P2_d3 () String)
(declare-fun input4_P2_d2 () String)
(declare-fun input5_P1 () String)
(declare-fun x7_P1 () String)
(declare-fun input3_P2 () String)
(declare-fun input5_P1_d4 () String)
(declare-fun input3_P1_d17 () String)
(declare-fun input4_P1_d8 () String)
(declare-fun input2_P1_d4 () String)
(declare-fun input5_P2 () String)
(declare-fun input3_P2_d18 () String)
(declare-fun input1_P2_d7 () String)
(declare-fun input1_P2_d0 () String)
(declare-fun input2_P1_d2 () String)
(declare-fun input5_P2_d2 () String)
(declare-fun x56_P2 () Int)
(declare-fun input3_P1_d22 () String)
(declare-fun input1_P1_d1 () String)
(declare-fun x7_P2 () String)
(declare-fun input3_P2_d4 () String)
(declare-fun x34_P2 () String)
(declare-fun x12_P1 () String)
(declare-fun input5_P2_d4 () String)
(declare-fun input2_P2_d0 () String)



     
(declare-fun input1_P1_d9 () String)
(declare-fun input1_P1_d10 () String)
(declare-fun input1_P1_d11 () String)
(declare-fun input1_P1_d12 () String)
(declare-fun input4_P2_d9 () String)
(declare-fun input4_P2_d10 () String)
(declare-fun input4_P2_d11 () String)
(declare-fun input4_P2_d12 () String)
(declare-fun input4_P2_d13 () String)
(declare-fun input4_P2_d14 () String)
(declare-fun input4_P2_d15 () String)
(declare-fun input4_P2_d16 () String)
(declare-fun input4_P2_d17 () String)
(declare-fun input4_P2_d18 () String)
(declare-fun input4_P2_d19 () String)
(declare-fun input4_P2_d20 () String)
(declare-fun input4_P2_d21 () String)
(declare-fun input4_P2_d22 () String)
(declare-fun input4_P2_d23 () String)
(declare-fun input4_P2_d24 () String)
(declare-fun input4_P2_d25 () String)
(declare-fun input4_P2_d26 () String)
(declare-fun input4_P2_d27 () String)
(declare-fun input2_P2_d5 () String)
(declare-fun input2_P2_d6 () String)
(declare-fun input2_P2_d7 () String)
(declare-fun input2_P2_d8 () String)
(declare-fun input2_P2_d9 () String)
(declare-fun input2_P2_d10 () String)
(declare-fun input2_P2_d11 () String)
(declare-fun input2_P2_d12 () String)
(declare-fun input2_P2_d13 () String)
(declare-fun input2_P2_d14 () String)
(declare-fun input2_P2_d15 () String)
(declare-fun input2_P2_d16 () String)
(declare-fun input2_P2_d17 () String)
(declare-fun input4_P1_d9 () String)
(declare-fun input4_P1_d10 () String)
(declare-fun input4_P1_d11 () String)
(declare-fun input4_P1_d12 () String)
(declare-fun input4_P1_d13 () String)
(declare-fun input4_P1_d14 () String)
(declare-fun input4_P1_d15 () String)
(declare-fun input4_P1_d16 () String)
(declare-fun input4_P1_d17 () String)
(declare-fun input4_P1_d18 () String)
(declare-fun input4_P1_d19 () String)
(declare-fun input4_P1_d20 () String)
(declare-fun input4_P1_d21 () String)
(declare-fun input4_P1_d22 () String)
(declare-fun input4_P1_d23 () String)
(declare-fun input4_P1_d24 () String)
(declare-fun input4_P1_d25 () String)
(declare-fun input4_P1_d26 () String)
(declare-fun input4_P1_d27 () String)
(declare-fun input2_P1_d5 () String)
(declare-fun input2_P1_d6 () String)
(declare-fun input2_P1_d7 () String)
(declare-fun input2_P1_d8 () String)
(declare-fun input2_P1_d9 () String)
(declare-fun input2_P1_d10 () String)
(declare-fun input2_P1_d11 () String)
(declare-fun input2_P1_d12 () String)
(declare-fun input2_P1_d13 () String)
(declare-fun input2_P1_d14 () String)
(declare-fun input2_P1_d15 () String)
(declare-fun input2_P1_d16 () String)
(declare-fun input2_P1_d17 () String)
(declare-fun input5_P2_d6 () String)
(declare-fun input5_P2_d7 () String)
(declare-fun input5_P2_d8 () String)
(declare-fun input5_P2_d9 () String)
(declare-fun input5_P2_d10 () String)
(declare-fun input5_P2_d11 () String)
(declare-fun input5_P2_d12 () String)
(declare-fun input5_P2_d13 () String)
(declare-fun input5_P2_d14 () String)
(declare-fun input5_P2_d15 () String)
(declare-fun input5_P2_d16 () String)
(declare-fun input5_P2_d17 () String)
(declare-fun input5_P2_d18 () String)
(declare-fun input5_P2_d19 () String)
(declare-fun input5_P2_d20 () String)
(declare-fun input5_P2_d21 () String)
(declare-fun input1_P2_d9 () String)
(declare-fun input1_P2_d10 () String)
(declare-fun input1_P2_d11 () String)
(declare-fun input1_P2_d12 () String)
(declare-fun input5_P1_d6 () String)
(declare-fun input5_P1_d7 () String)
(declare-fun input5_P1_d8 () String)
(declare-fun input5_P1_d9 () String)
(declare-fun input5_P1_d10 () String)
(declare-fun input5_P1_d11 () String)
(declare-fun input5_P1_d12 () String)
(declare-fun input5_P1_d13 () String)
(declare-fun input5_P1_d14 () String)
(declare-fun input5_P1_d15 () String)
(declare-fun input5_P1_d16 () String)
(declare-fun input5_P1_d17 () String)
(declare-fun input5_P1_d18 () String)
(declare-fun input5_P1_d19 () String)
(declare-fun input5_P1_d20 () String)
(declare-fun input5_P1_d21 () String)
(assert (= input3_P1 (str.++ (str.++ (str.++ (str.++ (str.++ (str.++ (str.++ (str.++ (str.++ (str.++ (str.++ (str.++ (str.++ (str.++ (str.++ (str.++ (str.++ (str.++ (str.++ (str.++ (str.++ (str.++ input3_P1_d0 (str.++ "," input3_P1_d1)) (str.++ "," input3_P1_d2)) (str.++ "," input3_P1_d3)) (str.++ "," input3_P1_d4)) (str.++ "," input3_P1_d5)) (str.++ "," input3_P1_d6)) (str.++ "," input3_P1_d7)) (str.++ "," input3_P1_d8)) (str.++ "," input3_P1_d9)) (str.++ "," input3_P1_d10)) (str.++ "," input3_P1_d11)) (str.++ "," input3_P1_d12)) (str.++ "," input3_P1_d13)) (str.++ "," input3_P1_d14)) (str.++ "," input3_P1_d15)) (str.++ "," input3_P1_d16)) (str.++ "," input3_P1_d17)) (str.++ "," input3_P1_d18)) (str.++ "," input3_P1_d19)) (str.++ "," input3_P1_d20)) (str.++ "," input3_P1_d21)) (str.++ "," input3_P1_d22)))); splitHandler input3_P1 23
(assert (= input1_P1 (str.++ (str.++ (str.++ (str.++ (str.++ (str.++ (str.++ (str.++ (str.++ (str.++ (str.++ (str.++ input1_P1_d0 (str.++ "," input1_P1_d1)) (str.++ "," input1_P1_d2)) (str.++ "," input1_P1_d3)) (str.++ "," input1_P1_d4)) (str.++ "," input1_P1_d5)) (str.++ "," input1_P1_d6)) (str.++ "," input1_P1_d7)) (str.++ "," input1_P1_d8)) (str.++ "," input1_P1_d9)) (str.++ "," input1_P1_d10)) (str.++ "," input1_P1_d11)) (str.++ "," input1_P1_d12)))); splitHandler input1_P1 13
(assert (= input4_P2 (str.++ (str.++ (str.++ (str.++ (str.++ (str.++ (str.++ (str.++ (str.++ (str.++ (str.++ (str.++ (str.++ (str.++ (str.++ (str.++ (str.++ (str.++ (str.++ (str.++ (str.++ (str.++ (str.++ (str.++ (str.++ (str.++ (str.++ input4_P2_d0 (str.++ "," input4_P2_d1)) (str.++ "," input4_P2_d2)) (str.++ "," input4_P2_d3)) (str.++ "," input4_P2_d4)) (str.++ "," input4_P2_d5)) (str.++ "," input4_P2_d6)) (str.++ "," input4_P2_d7)) (str.++ "," input4_P2_d8)) (str.++ "," input4_P2_d9)) (str.++ "," input4_P2_d10)) (str.++ "," input4_P2_d11)) (str.++ "," input4_P2_d12)) (str.++ "," input4_P2_d13)) (str.++ "," input4_P2_d14)) (str.++ "," input4_P2_d15)) (str.++ "," input4_P2_d16)) (str.++ "," input4_P2_d17)) (str.++ "," input4_P2_d18)) (str.++ "," input4_P2_d19)) (str.++ "," input4_P2_d20)) (str.++ "," input4_P2_d21)) (str.++ "," input4_P2_d22)) (str.++ "," input4_P2_d23)) (str.++ "," input4_P2_d24)) (str.++ "," input4_P2_d25)) (str.++ "," input4_P2_d26)) (str.++ "," input4_P2_d27)))); splitHandler input4_P2 28
(assert (= input2_P2 (str.++ (str.++ (str.++ (str.++ (str.++ (str.++ (str.++ (str.++ (str.++ (str.++ (str.++ (str.++ (str.++ (str.++ (str.++ (str.++ (str.++ input2_P2_d0 (str.++ "," input2_P2_d1)) (str.++ "," input2_P2_d2)) (str.++ "," input2_P2_d3)) (str.++ "," input2_P2_d4)) (str.++ "," input2_P2_d5)) (str.++ "," input2_P2_d6)) (str.++ "," input2_P2_d7)) (str.++ "," input2_P2_d8)) (str.++ "," input2_P2_d9)) (str.++ "," input2_P2_d10)) (str.++ "," input2_P2_d11)) (str.++ "," input2_P2_d12)) (str.++ "," input2_P2_d13)) (str.++ "," input2_P2_d14)) (str.++ "," input2_P2_d15)) (str.++ "," input2_P2_d16)) (str.++ "," input2_P2_d17)))); splitHandler input2_P2 18
(assert (= input4_P1 (str.++ (str.++ (str.++ (str.++ (str.++ (str.++ (str.++ (str.++ (str.++ (str.++ (str.++ (str.++ (str.++ (str.++ (str.++ (str.++ (str.++ (str.++ (str.++ (str.++ (str.++ (str.++ (str.++ (str.++ (str.++ (str.++ (str.++ input4_P1_d0 (str.++ "," input4_P1_d1)) (str.++ "," input4_P1_d2)) (str.++ "," input4_P1_d3)) (str.++ "," input4_P1_d4)) (str.++ "," input4_P1_d5)) (str.++ "," input4_P1_d6)) (str.++ "," input4_P1_d7)) (str.++ "," input4_P1_d8)) (str.++ "," input4_P1_d9)) (str.++ "," input4_P1_d10)) (str.++ "," input4_P1_d11)) (str.++ "," input4_P1_d12)) (str.++ "," input4_P1_d13)) (str.++ "," input4_P1_d14)) (str.++ "," input4_P1_d15)) (str.++ "," input4_P1_d16)) (str.++ "," input4_P1_d17)) (str.++ "," input4_P1_d18)) (str.++ "," input4_P1_d19)) (str.++ "," input4_P1_d20)) (str.++ "," input4_P1_d21)) (str.++ "," input4_P1_d22)) (str.++ "," input4_P1_d23)) (str.++ "," input4_P1_d24)) (str.++ "," input4_P1_d25)) (str.++ "," input4_P1_d26)) (str.++ "," input4_P1_d27)))); splitHandler input4_P1 28
(assert (= input2_P1 (str.++ (str.++ (str.++ (str.++ (str.++ (str.++ (str.++ (str.++ (str.++ (str.++ (str.++ (str.++ (str.++ (str.++ (str.++ (str.++ (str.++ input2_P1_d0 (str.++ "," input2_P1_d1)) (str.++ "," input2_P1_d2)) (str.++ "," input2_P1_d3)) (str.++ "," input2_P1_d4)) (str.++ "," input2_P1_d5)) (str.++ "," input2_P1_d6)) (str.++ "," input2_P1_d7)) (str.++ "," input2_P1_d8)) (str.++ "," input2_P1_d9)) (str.++ "," input2_P1_d10)) (str.++ "," input2_P1_d11)) (str.++ "," input2_P1_d12)) (str.++ "," input2_P1_d13)) (str.++ "," input2_P1_d14)) (str.++ "," input2_P1_d15)) (str.++ "," input2_P1_d16)) (str.++ "," input2_P1_d17)))); splitHandler input2_P1 18
(assert (= input5_P2 (str.++ (str.++ (str.++ (str.++ (str.++ (str.++ (str.++ (str.++ (str.++ (str.++ (str.++ (str.++ (str.++ (str.++ (str.++ (str.++ (str.++ (str.++ (str.++ (str.++ (str.++ input5_P2_d0 (str.++ "," input5_P2_d1)) (str.++ "," input5_P2_d2)) (str.++ "," input5_P2_d3)) (str.++ "," input5_P2_d4)) (str.++ "," input5_P2_d5)) (str.++ "," input5_P2_d6)) (str.++ "," input5_P2_d7)) (str.++ "," input5_P2_d8)) (str.++ "," input5_P2_d9)) (str.++ "," input5_P2_d10)) (str.++ "," input5_P2_d11)) (str.++ "," input5_P2_d12)) (str.++ "," input5_P2_d13)) (str.++ "," input5_P2_d14)) (str.++ "," input5_P2_d15)) (str.++ "," input5_P2_d16)) (str.++ "," input5_P2_d17)) (str.++ "," input5_P2_d18)) (str.++ "," input5_P2_d19)) (str.++ "," input5_P2_d20)) (str.++ "," input5_P2_d21)))); splitHandler input5_P2 22
(assert (= input3_P2 (str.++ (str.++ (str.++ (str.++ (str.++ (str.++ (str.++ (str.++ (str.++ (str.++ (str.++ (str.++ (str.++ (str.++ (str.++ (str.++ (str.++ (str.++ (str.++ (str.++ (str.++ (str.++ input3_P2_d0 (str.++ "," input3_P2_d1)) (str.++ "," input3_P2_d2)) (str.++ "," input3_P2_d3)) (str.++ "," input3_P2_d4)) (str.++ "," input3_P2_d5)) (str.++ "," input3_P2_d6)) (str.++ "," input3_P2_d7)) (str.++ "," input3_P2_d8)) (str.++ "," input3_P2_d9)) (str.++ "," input3_P2_d10)) (str.++ "," input3_P2_d11)) (str.++ "," input3_P2_d12)) (str.++ "," input3_P2_d13)) (str.++ "," input3_P2_d14)) (str.++ "," input3_P2_d15)) (str.++ "," input3_P2_d16)) (str.++ "," input3_P2_d17)) (str.++ "," input3_P2_d18)) (str.++ "," input3_P2_d19)) (str.++ "," input3_P2_d20)) (str.++ "," input3_P2_d21)) (str.++ "," input3_P2_d22)))); splitHandler input3_P2 23
(assert (= input1_P2 (str.++ (str.++ (str.++ (str.++ (str.++ (str.++ (str.++ (str.++ (str.++ (str.++ (str.++ (str.++ input1_P2_d0 (str.++ "," input1_P2_d1)) (str.++ "," input1_P2_d2)) (str.++ "," input1_P2_d3)) (str.++ "," input1_P2_d4)) (str.++ "," input1_P2_d5)) (str.++ "," input1_P2_d6)) (str.++ "," input1_P2_d7)) (str.++ "," input1_P2_d8)) (str.++ "," input1_P2_d9)) (str.++ "," input1_P2_d10)) (str.++ "," input1_P2_d11)) (str.++ "," input1_P2_d12)))); splitHandler input1_P2 13
(assert (= input5_P1 (str.++ (str.++ (str.++ (str.++ (str.++ (str.++ (str.++ (str.++ (str.++ (str.++ (str.++ (str.++ (str.++ (str.++ (str.++ (str.++ (str.++ (str.++ (str.++ (str.++ (str.++ input5_P1_d0 (str.++ "," input5_P1_d1)) (str.++ "," input5_P1_d2)) (str.++ "," input5_P1_d3)) (str.++ "," input5_P1_d4)) (str.++ "," input5_P1_d5)) (str.++ "," input5_P1_d6)) (str.++ "," input5_P1_d7)) (str.++ "," input5_P1_d8)) (str.++ "," input5_P1_d9)) (str.++ "," input5_P1_d10)) (str.++ "," input5_P1_d11)) (str.++ "," input5_P1_d12)) (str.++ "," input5_P1_d13)) (str.++ "," input5_P1_d14)) (str.++ "," input5_P1_d15)) (str.++ "," input5_P1_d16)) (str.++ "," input5_P1_d17)) (str.++ "," input5_P1_d18)) (str.++ "," input5_P1_d19)) (str.++ "," input5_P1_d20)) (str.++ "," input5_P1_d21)))); splitHandler input5_P1 22
(assert  (and (=  x56_P1 ( select  x62 0 ) )  (and (=  x56_P2 ( select  x62 1 ) )  (and (=  x1_P1 input1_P1_d0 )  (and (=  x4_P1 input2_P1_d4 )  (and (=  x7_P1 input2_P1_d0 )  (and (=  x12_P1 input3_P1_d2 )  (and (=  x15_P1 input3_P1_d22 )  (and (=  x22_P1 input4_P1_d0 )  (and (=  x25_P1 input3_P1_d1 )  (and (=  x34_P1 input5_P1_d0 )  (and (=  x37_P1 input4_P1_d3 )  (and (=  x50_P1 input4_P1_d3 )  (and (=  x55_P1 input1_P1_d8 )  (and (=  x56_P1 1 )  (and (=  x1_P2 input1_P2_d0 )  (and (=  x4_P2 input2_P2_d4 )  (and (=  x7_P2 input2_P2_d0 )  (and (=  x12_P2 input3_P2_d2 )  (and (=  x15_P2 input3_P2_d22 )  (and (=  x22_P2 input4_P2_d0 )  (and (=  x25_P2 input3_P2_d1 )  (and (=  x34_P2 input5_P2_d0 )  (and (=  x37_P2 input4_P2_d3 )  (and (=  x50_P2 input4_P2_d3 )  (and (=  x55_P2 input1_P2_d8 )  (and (=  x56_P2 1 ) (=  x61 (+  x58 x60 ) ) ) ) ) ) ) ) ) ) ) ) ) ) ) ) ) ) ) ) ) ) ) ) ) ) ) ) )
(assert  (and (=  x1_P1 x4_P1 )  (and (=  x7_P1 x12_P1 )  (and (=  x15_P1 x22_P1 )  (and (=  x25_P1 x34_P1 )  (and (=  input4_P1_d8  "2001"  )  (and (=  input4_P1_d6  "1"  )  (and (=  x37_P1 x50_P1 )  (and (>  ( str.to_int input5_P1_d5  ) 100 )  (and (isinteger  input5_P1_d5 )  (and (=  x1_P2 x4_P2 )  (and (=  x7_P2 x12_P2 )  (and (=  x15_P2 x22_P2 )  (and (=  x25_P2 x34_P2 )  (and (=  input4_P2_d8  "2001"  )  (and (=  input4_P2_d6  "1"  )  (and (=  x37_P2 x50_P2 )  (and (>  ( str.to_int input5_P2_d5  ) 100 )  (and (isinteger  input5_P2_d5 )  (and (=  x55_P2 x55_P1 )  (and (=  ( select  x62 1 ) x58 )  (and (>=  1 0 )  (and (<  1 x59 )  (and (=  ( select  x62 0 ) x60 )  (and (>=  0 0 )  (and (<  0 x59 ) (>=  x59 0 ) ) ) ) ) ) ) ) ) ) ) ) ) ) ) ) ) ) ) ) ) ) ) ) ) ) )
(check-sat)
(get-model)
